\ This file was automatically generated by Zimpl
\ set p := {1 to 6};
\ set o := {1 to 3};
\ set d := { 1 to 5};
\ set od := o * d;
\ param OD[od] :=     <1, 1> 0.1, <1, 2> 0.1,  <1, 3> 0.1,  <1, 4> 0.1,  <1, 5> 0.6,     <1, 1> 0.1, <1, 2> 0.15, <1, 3> 0.15, 
\ <1, 4> 0.15, <1, 5> 0.45,     <1, 1> 0.1, <1, 2> 0.20, <1, 3> 0.2,  <1, 4> 0.2,  <1, 5> 0.3;
\ param D[o] := <1> 70000, <2> 100000, <3> 50000;
\ param C[o] := <1> 3, <2> 2.5, <3> 3.0;
\ param V[p] := <1> 2.1, <2> 3.5, <3> 3.3, <4> 3.1, <5> 2.5, <6> 2.8;
\ param Max[p] := <1> 10000, <2> 20000, <3> 20000, <4> 25000, <5> 20000, <6> 20000;
\ param Min[p] := <1> 5000, <2> 13000, <3> 15000, <4> 10000, <5> 10000, <6> 12000;
\ param MAX_PROD := 100000;
\ param MIN_ARABIA := 10000;
\ var Xc[o] >= 0;
\ var Xp[p] >= 0;
\ maximize lucro :     (sum <px> in p : Xp[px] * V[px]) -         (sum <ox> in o : Xc[ox] * C[ox]);
\ subto c1:     forall <ox> in o :         Xc[ox] <= D[ox];
\ subto c2:     sum <px> in p : Xp[px]  <= MAX_PROD;
\ subto c3:     forall <px> in p :         Xp[px] <= Max[px] and Xp[px] >= Min[px];
\ subto c4 :     Xc[2] >= MIN_ARABIA;
\Problem name: file
Maximize
 lucro:  -3 Xc#1 -2.5 Xc#2 -3 Xc#3 +2.1 Xp#1 +3.5 Xp#2 +3.3 Xp#3
  +3.1 Xp#4 +2.5 Xp#5 +2.8 Xp#6
Subject to
 c1_1:
  + Xc#1 <= 70000
 c1_2:
  + Xc#2 <= 100000
 c1_3:
  + Xc#3 <= 50000
 c2_1:
  + Xp#6 + Xp#5 + Xp#4 + Xp#3 + Xp#2 + Xp#1
  <= 100000
 c3_1:
  + Xp#1 <= 10000
 c3_2:
  + Xp#1 >= 5000
 c3_3:
  + Xp#2 <= 20000
 c3_4:
  + Xp#2 >= 13000
 c3_5:
  + Xp#3 <= 20000
 c3_6:
  + Xp#3 >= 15000
 c3_7:
  + Xp#4 <= 25000
 c3_8:
  + Xp#4 >= 10000
 c3_9:
  + Xp#5 <= 20000
 c3_10:
  + Xp#5 >= 10000
 c3_11:
  + Xp#6 <= 20000
 c3_12:
  + Xp#6 >= 12000
 c4_1:
  + Xc#2 >= 10000
Bounds
 0 <= Xc#1 <= +inf
 0 <= Xc#2 <= +inf
 0 <= Xc#3 <= +inf
 0 <= Xp#1 <= +inf
 0 <= Xp#2 <= +inf
 0 <= Xp#3 <= +inf
 0 <= Xp#4 <= +inf
 0 <= Xp#5 <= +inf
 0 <= Xp#6 <= +inf
End
